Problem:    
Rows:       36
Columns:    10 (10 integer, 0 binary)
Non-zeros:  57
Status:     INTEGER OPTIMAL
Objective:  obj = 46 (MINimum)

   No.   Row name        Activity     Lower bound   Upper bound
------ ------------    ------------- ------------- -------------
     1 r.4                        -5            -5               
     2 r.5                         5             0               
     3 r.6                        -7            -7               
     4 r.7                         5             0               
     5 r.8                         0            -3               
     6 r.9                         0             0               
     7 r.10                       -3            -3               
     8 r.11                        0             0               
     9 r.12                        0             0             = 
    10 r.13                        0            -5               
    11 r.14                        0             0               
    12 r.15                        5             5             = 
    13 r.16                       -5            -5               
    14 r.17                        0             0               
    15 r.18                       -2            -7               
    16 r.19                        2             0               
    17 r.20                        2             0               
    18 r.21                       -3            -3               
    19 r.22                        3             0               
    20 r.23                        3             0               
    21 r.24                       -2            -5               
    22 r.25                        2             0               
    23 r.26                        7             7             = 
    24 r.27                        2             0               
    25 r.28                        0            -3               
    26 r.29                        0             0               
    27 r.30                        0             0               
    28 r.31                        0            -3               
    29 r.32                        0             0               
    30 r.33                        0             0               
    31 r.34                       -3            -3               
    32 r.35                        3             0               
    33 r.36                        3             3             = 
    34 r.37                        3             0               
    35 r.38                      -46        -80082               
    36 r.39                       46             0               

   No. Column name       Activity     Lower bound   Upper bound
------ ------------    ------------- ------------- -------------
     1 X9           *             46             0         80082 
     2 X0           *              5             0             5 
     3 X3           *              2             0             7 
     4 X6           *              0             0             3 
     5 X1           *              0             0             3 
     6 X4           *              3             0             3 
     7 X7           *              0             0             3 
     8 X8           *              3             0             3 
     9 X5           *              2             0             5 
    10 X2           *              0             0             5 

Integer feasibility conditions:

KKT.PE: max.abs.err = 0.00e+00 on row 0
        max.rel.err = 0.00e+00 on row 0
        High quality

KKT.PB: max.abs.err = 0.00e+00 on row 0
        max.rel.err = 0.00e+00 on row 0
        High quality

End of output
